100 8
422 737
516 789
969 369
684 316
324 375
61 362
738 526
307 705
406 694
43 400
750 254
622 858
196 649
848 344
110 679
357 126
155 609
618 964
878 523
213 393
390 833
750 560
803 284
272 864
335 287
314 569
583 842
982 257
691 209
317 682
878 521
74 390
288 742
276 245
570 808
823 605
194 910
412 700
233 939
267 183
167 631
379 818
204 684
803 315
789 583
121 442
828 523
296 737
899 294
649 913
185 340
689 443
669 435
202 611
268 792
830 434
299 639
884 467
151 307
500 891
695 292
808 383
850 259
673 248
38 443
139 715
492 814
565 429
615 262
649 332
88 643
644 962
833 366
549 927
613 818
298 739
443 275
235 211
950 549
811 579
89 663
315 392
321 246
140 622
655 258
641 186
181 360
813 368
936 269
635 208
287 203
261 362
245 862
350 267
390 777
93 349
8 433
379 304
568 791
188 267
